problems/VanDerWaerdenNumbers/VanDerWaerden-models/noch/O2/lingeling/model_4-k3l4n68-solution000001.solution
language Essence 1.3

letting p be
        partition({1, 3, 8, 9, 10, 12, 18, 20, 24, 26, 28, 29, 35, 37, 39, 40, 42, 43, 44, 50, 55, 57, 59, 66},
                  {2, 5, 7, 14, 17, 19, 21, 27, 31, 34, 38, 41, 45, 46, 47, 53, 56, 62, 63, 64, 68},
                  {4, 6, 11, 13, 15, 16, 22, 23, 25, 30, 32, 33, 36, 48, 49, 51, 52, 54, 58, 60, 61, 65, 67})
